400
500
400
399
398
398
398
398
397
396
396
395
394
392
392
391
389
389
389
386
386
386
385
385
385
383
383
382
382
382
382
381
381
381
379
379
379
378
378
377
376
376
376
376
373
373
371
371
370
370
369
369
369
367
367
367
365
365
365
364
363
361
360
359
358
358
358
356
356
354
354
353
353
353
352
352
352
349
348
348
347
347
345
345
345
344
344
343
342
342
342
341
341
341
339
338
338
337
336
336
336
335
334
332
332
332
332
331
330
330
330
328
326
324
323
323
322
322
321
321
320
319
318
318
317
317
317
314
313
312
312
310
310
309
307
306
306
306
305
305
302
300
300
299
299
298
297
296
296
296
295
294
293
292
292
292
291
291
291
290
290
289
289
288
287
287
286
286
285
284
284
284
284
281
280
280
279
278
277
276
275
274
273
273
272
271
270
268
265
265
264
264
261
260
260
259
258
258
257
257
257
257
256
256
255
254
253
251
251
251
251
248
248
246
246
245
244
243
242
241
241
240
240
236
235
235
234
233
231
231
229
229
228
228
227
227
226
226
225
225
224
224
224
223
220
219
219
219
216
216
214
214
214
213
213
212
212
210
208
207
207
205
205
205
204
204
203
202
201
198
198
198
197
196
195
195
194
193
193
192
192
192
191
191
190
189
188
188
187
186
185
185
182
182
179
178
177
177
176
175
174
172
172
171
171
171
171
170
166
164
164
164
162
161
161
160
160
159
158
158
157
156
156
156
156
154
154
152
152
152
152
150
150
149
149
148
148
147
146
144
144
143
142
140
139
138
138
136
136
135
135
134
133
133
133
133
132
132
132
132
131
130
129
129
129
128
128
127
127
125
124
124
123
121
121
120
120
119
118
117
116
115
115
113
112
112
112
112
111
111
111
109
109
107
105
104
104
101
100
100
100
100
